
******************************************************************************
This program contains Ipopt, a library for large-scale nonlinear optimization.
 Ipopt is released as open source code under the Eclipse Public License (EPL).
         For more information visit https://github.com/coin-or/Ipopt
******************************************************************************

This is Ipopt version 3.14.16, running with linear solver MUMPS 5.7.3.

Number of nonzeros in equality constraint Jacobian...:        0
Number of nonzeros in inequality constraint Jacobian.:        1
Number of nonzeros in Lagrangian Hessian.............:        0

Total number of variables............................:        1
                     variables with only lower bounds:        0
                variables with lower and upper bounds:        1
                     variables with only upper bounds:        0
Total number of equality constraints.................:        0
Total number of inequality constraints...............:        1
        inequality constraints with only lower bounds:        0
   inequality constraints with lower and upper bounds:        1
        inequality constraints with only upper bounds:        0

iter    objective    inf_pr   inf_du lg(mu)  ||d||  lg(rg) alpha_du alpha_pr  ls
   0 -9.3767239e+00 0.00e+00 0.00e+00   0.0 0.00e+00    -  0.00e+00 0.00e+00   0
   1 -9.3767239e+00 0.00e+00 2.65e-07  -6.5 2.67e-07    -  9.90e-01 1.00e+00f  1
   2 -9.3767239e+00 0.00e+00 1.11e-01  -2.6 1.11e-01    -  1.00e+00 3.81e-06f 19
   3 -9.3767239e+00 0.00e+00 1.62e-02  -2.6 1.62e-02    -  1.00e+00 7.63e-06f 18
   4 -9.3767239e+00 0.00e+00 1.26e+05  -3.9 2.71e-03    -  1.00e+00 7.63e-06f 18
   5 -9.3767239e+00 0.00e+00 1.26e+05  -3.9 2.06e-08    -  1.00e+00 6.10e-05f 15
   6 -9.3767239e+00 0.00e+00 1.26e+05  -3.9 2.06e-08    -  1.00e+00 6.10e-05f 15
   7 -9.3767239e+00 0.00e+00 1.26e+05  -3.9 2.06e-08    -  1.00e+00 6.10e-05f 15
   8 -1.1634385e+01 0.00e+00 2.35e-01  -3.9 5.79e+04    -  3.27e-06 4.31e-08f  3
   9 -1.1634385e+01 0.00e+00 2.69e-03  -4.7 5.33e-11    -  1.00e+00 1.00e+00f  1
iter    objective    inf_pr   inf_du lg(mu)  ||d||  lg(rg) alpha_du alpha_pr  ls
  10 -1.1634385e+01 0.00e+00 2.15e-03  -4.8 4.26e-11    -  1.00e+00 1.00e+00f  1
  11 -1.1634385e+01 0.00e+00 2.15e-03  -4.8 4.26e-11    -  1.00e+00 1.00e+00f  1
  12 -1.1968437e+01 0.00e+00 1.66e-03  -4.8 1.66e-03    -  1.00e+00 5.00e-01f  2
  13 -1.1973306e+01 0.00e+00 1.24e-05  -6.9 1.24e-05    -  1.00e+00 1.00e+00f  1
  14 -1.1973306e+01 0.00e+00 1.14e-09 -11.0 1.14e-09    -  1.00e+00 1.00e+00f  1

Number of Iterations....: 14

                                   (scaled)                 (unscaled)
Objective...............:  -1.1973305959797681e+01   -1.1973305959797681e+01
Dual infeasibility......:   1.1438737212256742e-09    1.1438737212256742e-09
Constraint violation....:   0.0000000000000000e+00    0.0000000000000000e+00
Variable bound violation:   0.0000000000000000e+00    0.0000000000000000e+00
Complementarity.........:   1.0000788633266484e-11    1.0000788633266484e-11
Overall NLP error.......:   1.1438737212256742e-09    1.1438737212256742e-09


Number of objective function evaluations             = 144
Number of objective gradient evaluations             = 15
Number of equality constraint evaluations            = 0
Number of inequality constraint evaluations          = 144
Number of equality constraint Jacobian evaluations   = 0
Number of inequality constraint Jacobian evaluations = 15
Number of Lagrangian Hessian evaluations             = 0
Total seconds in IPOPT                               = 1228.051

EXIT: Optimal Solution Found.
